NAME : eil76
TYPE : OP
DIMENSION : 76
COST_LIMIT : 269
ROUTE_NODES : 41
ROUTE_SCORE : 2550
ROUTE_COST : 269
NODE_SEQUENCE_SECTION
1
62
73
33
6
68
75
76
26
67
4
45
30
74
28
21
47
5
15
57
13
27
52
34
46
8
35
53
11
65
38
10
72
39
40
32
44
3
16
23
43
-1
DEPOT_SECTION
1
-1
EOF
